n = 23;
lu = [|-156, 255
      |-187, -82
      |-183, -132
      |-342, -220
      |-503, 51
      |374, 428
      |-472, -293
      |-184, 529
      |380, 477
      |94, 494
      |-355, -9
      |-207, 140
      |-377, 96
      |-461, 222
      |-92, 118
      |-387, 165
      |-331, 107
      |-216, -26
      |52, 473
      |16, 31
      |-338, -124
      |-214, 483
      |-236, 135|];
